peakDumbCharging = 25900; 
Machine = anon_enum(16); 
machineSpeed = [3700,3700,3700,3700,3700,3700,3700,3700,3700,3700,3700,3700,3700,3700,3700,3700]; 
machineLoad = [3700,3700,3700,3700,3700,3700,3700,3700,3700,3700,3700,3700,3700,3700,3700,3700]; 
Car = anon_enum(19); 
demandCar = [8440,12120,6520,28320,5760,6880,18160,11240,14920,1040,14560,11920,3600,5320,26560,32160,36440,33480,7560]; 
arrivalCar = [75,72,71,70,70,69,69,69,66,63,56,54,46,44,43,37,36,36,35]; 
departureCar = [78,77,74,79,72,74,77,75,72,65,62,61,49,47,53,62,68,51,39]; 
